9
12
0 18 47 23 58 48 22 10 54 5 45 42
10
0 41 52 38 59 13 8 29 57 37
8
0 16 35 55 39 43 56 12
8
0 25 6 31 28 44 1 36
8
0 33 19 15 26 17 27 7
2
0 20
6
0 14 50 32 9 51
8
0 46 11 4 21 53 49 30
6
0 3 40 34 24 2
